
  20    0


   0  11 2 3 4 5 7 8 15 16 17 18 19 
   4   3 13 10 6 
   7   3 14 13 11 
   2   3 12 10 9 
   3   2 10 9 
   1   1 11 
   5   1 12 
  10   1 9 
   7   1 20
   4   1 20
   5   1 20
   1   1 20
   2   1 20
   4   1 20
  10   1 20
   9   1 20
  10   1 20
  10   1 20
   7   1 20
   0   0 
